coords = array2d(1..31, 1..2, [736, 813, 335, 879, 887, 130, 521, 837, 227,
    781, 689, 770, 535, 983, 304, 263, 439, 56, 597, 40, 718, 438,
    818, 540, 371, 387, 861, 842, 801, 80, 565, 419, 42, 516, 48, 937,
    447, 654, 635, 948, 800, 279, 98, 575, 312, 329, 930, 279, 321,
    250, 969, 608, 158, 523, 786, 437, 513, 77, 506, 321, 855, 764]);

n = 31;

